\ LP format - for model browsing. Use MPS format to capture full model detail.
Minimize
  655 x[0] + 635 x[1] + 610 x[2] + 510 x[3] + 490 x[4] + 480 x[5] + 450 x[6]
   + 385 x[7] + 380 x[8] + 370 x[9] + 265 x[10] + 255 x[11] + 240 x[12]
   + 170 x[13] + 155 x[14] + 155 x[15] + 130 x[16] + 110 x[17] + 91 x[18]
   + 68 x[19] + 605 x[20] + 585 x[21] + 500 x[22] + 480 x[23] + 480 x[24]
   + 475 x[25] + 445 x[26] + 440 x[27] + 440 x[28] + 415 x[29] + 380 x[30]
   + 360 x[31] + 355 x[32] + 320 x[33] + 290 x[34] + 270 x[35] + 235 x[36]
   + 140 x[37] + 81 x[38] + 755 x[39] + 750 x[40] + 705 x[41] + 700 x[42]
   + 640 x[43] + 625 x[44] + 605 x[45] + 590 x[46] + 585 x[47] + 575 x[48]
   + 570 x[49] + 540 x[50] + 495 x[51] + 495 x[52] + 435 x[53] + 420 x[54]
   + 390 x[55] + 295 x[56] + 555 x[57] + 520 x[58] + 460 x[59] + 380 x[60]
   + 350 x[61] + 345 x[62] + 280 x[63] + 280 x[64] + 235 x[65] + 235 x[66]
   + 160 x[67] + 140 x[68] + 120 x[69] + 97 x[70] + 78 x[71] + 63 x[72]
   + 27 x[73] + 835 x[74] + 750 x[75] + 660 x[76] + 650 x[77] + 590 x[78]
   + 575 x[79] + 495 x[80] + 480 x[81] + 480 x[82] + 430 x[83] + 320 x[84]
   + 320 x[85] + 285 x[86] + 240 x[87] + 125 x[88] + 120 x[89] + 615 x[90]
   + 605 x[91] + 440 x[92] + 430 x[93] + 370 x[94] + 365 x[95] + 350 x[96]
   + 340 x[97] + 265 x[98] + 255 x[99] + 200 x[100] + 125 x[101]
   + 96 x[102] + 91 x[103] + 36 x[104] + 625 x[105] + 590 x[106]
   + 455 x[107] + 425 x[108] + 420 x[109] + 350 x[110] + 350 x[111]
   + 320 x[112] + 220 x[113] + 205 x[114] + 200 x[115] + 160 x[116]
   + 48 x[117] + 29 x[118] + 645 x[119] + 610 x[120] + 465 x[121]
   + 440 x[122] + 390 x[123] + 370 x[124] + 370 x[125] + 350 x[126]
   + 240 x[127] + 220 x[128] + 175 x[129] + 165 x[130] + 67 x[131]
   + 865 x[132] + 775 x[133] + 690 x[134] + 680 x[135] + 625 x[136]
   + 600 x[137] + 600 x[138] + 535 x[139] + 515 x[140] + 505 x[141]
   + 430 x[142] + 230 x[143] + 475 x[144] + 300 x[145] + 285 x[146]
   + 250 x[147] + 245 x[148] + 240 x[149] + 235 x[150] + 185 x[151]
   + 150 x[152] + 150 x[153] + 77 x[154] + 515 x[155] + 480 x[156]
   + 345 x[157] + 310 x[158] + 310 x[159] + 240 x[160] + 175 x[161]
   + 125 x[162] + 100 x[163] + 90 x[164] + 585 x[165] + 545 x[166]
   + 415 x[167] + 380 x[168] + 310 x[169] + 265 x[170] + 205 x[171]
   + 170 x[172] + 170 x[173] + 715 x[174] + 485 x[175] + 400 x[176]
   + 390 x[177] + 345 x[178] + 295 x[179] + 190 x[180] + 180 x[181]
   + 650 x[182] + 525 x[183] + 435 x[184] + 425 x[185] + 280 x[186]
   + 215 x[187] + 170 x[188] + 475 x[189] + 405 x[190] + 385 x[191]
   + 255 x[192] + 190 x[193] + 105 x[194] + 545 x[195] + 485 x[196]
   + 395 x[197] + 380 x[198] + 375 x[199] + 280 x[200] + 225 x[201]
   + 205 x[202] + 87 x[203] + 315 x[204] + 220 x[205] + 165 x[206]
   + 305 x[207] + 155 x[208] + 150 x[209]
Subject To
 R0: x[0] + x[1] + x[2] + x[3] + x[4] + x[5] + x[6] + x[7] + x[8] + x[9]
   + x[10] + x[11] + x[12] + x[13] + x[14] + x[15] + x[16] + x[17] + x[18]
   + x[19] = 2
 R1: x[3] + x[20] + x[21] + x[22] + x[23] + x[24] + x[25] + x[26] + x[27]
   + x[28] + x[29] + x[30] + x[31] + x[32] + x[33] + x[34] + x[35] + x[36]
   + x[37] + x[38] = 2
 R2: x[1] + x[32] + x[39] + x[40] + x[41] + x[42] + x[43] + x[44] + x[45]
   + x[46] + x[47] + x[48] + x[49] + x[50] + x[51] + x[52] + x[53] + x[54]
   + x[55] + x[56] = 2
 R3: x[18] + x[29] + x[45] + x[57] + x[58] + x[59] + x[60] + x[61] + x[62]
   + x[63] + x[64] + x[65] + x[66] + x[67] + x[68] + x[69] + x[70] + x[71]
   + x[72] + x[73] = 2
 R4: x[7] + x[21] + x[55] + x[61] + x[74] + x[75] + x[76] + x[77] + x[78]
   + x[79] + x[80] + x[81] + x[82] + x[83] + x[84] + x[85] + x[86] + x[87]
   + x[88] + x[89] = 2
 R5: x[15] + x[25] + x[52] + x[69] + x[87] + x[90] + x[91] + x[92] + x[93]
   + x[94] + x[95] + x[96] + x[97] + x[98] + x[99] + x[100] + x[101]
   + x[102] + x[103] + x[104] = 2
 R6: x[17] + x[24] + x[49] + x[71] + x[85] + x[102] + x[105] + x[106]
   + x[107] + x[108] + x[109] + x[110] + x[111] + x[112] + x[113] + x[114]
   + x[115] + x[116] + x[117] + x[118] = 2
 R7: x[16] + x[22] + x[50] + x[70] + x[86] + x[104] + x[118] + x[119]
   + x[120] + x[121] + x[122] + x[123] + x[124] + x[125] + x[126] + x[127]
   + x[128] + x[129] + x[130] + x[131] = 2
 R8: x[4] + x[20] + x[56] + x[59] + x[89] + x[96] + x[108] + x[123]
   + x[132] + x[133] + x[134] + x[135] + x[136] + x[137] + x[138] + x[139]
   + x[140] + x[141] + x[142] + x[143] = 2
 R9: x[9] + x[33] + x[42] + x[64] + x[78] + x[95] + x[111] + x[125]
   + x[136] + x[144] + x[145] + x[146] + x[147] + x[148] + x[149] + x[150]
   + x[151] + x[152] + x[153] + x[154] = 2
 R10: x[14] + x[30] + x[43] + x[72] + x[83] + x[100] + x[116] + x[129]
   + x[139] + x[149] + x[155] + x[156] + x[157] + x[158] + x[159] + x[160]
   + x[161] + x[162] + x[163] + x[164] = 2
 R11: x[19] + x[28] + x[48] + x[73] + x[84] + x[103] + x[117] + x[131]
   + x[142] + x[145] + x[164] + x[165] + x[166] + x[167] + x[168] + x[169]
   + x[170] + x[171] + x[172] + x[173] = 2
 R12: x[2] + x[31] + x[41] + x[58] + x[74] + x[91] + x[106] + x[120]
   + x[132] + x[147] + x[156] + x[166] + x[174] + x[175] + x[176] + x[177]
   + x[178] + x[179] + x[180] + x[181] = 2
 R13: x[0] + x[36] + x[47] + x[57] + x[75] + x[90] + x[105] + x[119]
   + x[133] + x[146] + x[155] + x[165] + x[180] + x[182] + x[183] + x[184]
   + x[185] + x[186] + x[187] + x[188] = 2
 R14: x[5] + x[38] + x[53] + x[60] + x[79] + x[92] + x[107] + x[121]
   + x[138] + x[148] + x[157] + x[167] + x[179] + x[188] + x[189] + x[190]
   + x[191] + x[192] + x[193] + x[194] = 2
 R15: x[10] + x[23] + x[54] + x[66] + x[88] + x[101] + x[115] + x[130]
   + x[143] + x[144] + x[159] + x[171] + x[174] + x[182] + x[189] + x[195]
   + x[196] + x[197] + x[198] + x[199] = 2
 R16: x[11] + x[27] + x[39] + x[65] + x[77] + x[94] + x[112] + x[126]
   + x[135] + x[153] + x[161] + x[170] + x[176] + x[184] + x[191] + x[196]
   + x[200] + x[201] + x[202] + x[203] = 2
 R17: x[6] + x[35] + x[44] + x[62] + x[76] + x[93] + x[109] + x[122]
   + x[134] + x[154] + x[158] + x[168] + x[181] + x[187] + x[193] + x[195]
   + x[201] + x[204] + x[205] + x[206] = 2
 R18: x[13] + x[26] + x[40] + x[67] + x[80] + x[98] + x[113] + x[127]
   + x[137] + x[150] + x[162] + x[173] + x[175] + x[183] + x[190] + x[199]
   + x[203] + x[204] + x[207] + x[208] = 2
 R19: x[12] + x[34] + x[46] + x[68] + x[82] + x[99] + x[114] + x[128]
   + x[140] + x[152] + x[163] + x[172] + x[177] + x[185] + x[192] + x[197]
   + x[202] + x[205] + x[208] + x[209] = 2
 R20: x[8] + x[37] + x[51] + x[63] + x[81] + x[97] + x[110] + x[124]
   + x[141] + x[151] + x[160] + x[169] + x[178] + x[186] + x[194] + x[198]
   + x[200] + x[206] + x[207] + x[209] = 2
Bounds
 x[0] <= 1
 x[1] <= 1
 x[2] <= 1
 x[3] <= 1
 x[4] <= 1
 x[5] <= 1
 x[6] <= 1
 x[7] <= 1
 x[8] <= 1
 x[9] <= 1
 x[10] <= 1
 x[11] <= 1
 x[12] <= 1
 x[13] <= 1
 x[14] <= 1
 x[15] <= 1
 x[16] <= 1
 x[17] <= 1
 x[18] <= 1
 x[19] <= 1
 x[20] <= 1
 x[21] <= 1
 x[22] <= 1
 x[23] <= 1
 x[24] <= 1
 x[25] <= 1
 x[26] <= 1
 x[27] <= 1
 x[28] <= 1
 x[29] <= 1
 x[30] <= 1
 x[31] <= 1
 x[32] <= 1
 x[33] <= 1
 x[34] <= 1
 x[35] <= 1
 x[36] <= 1
 x[37] <= 1
 x[38] <= 1
 x[39] <= 1
 x[40] <= 1
 x[41] <= 1
 x[42] <= 1
 x[43] <= 1
 x[44] <= 1
 x[45] <= 1
 x[46] <= 1
 x[47] <= 1
 x[48] <= 1
 x[49] <= 1
 x[50] <= 1
 x[51] <= 1
 x[52] <= 1
 x[53] <= 1
 x[54] <= 1
 x[55] <= 1
 x[56] <= 1
 x[57] <= 1
 x[58] <= 1
 x[59] <= 1
 x[60] <= 1
 x[61] <= 1
 x[62] <= 1
 x[63] <= 1
 x[64] <= 1
 x[65] <= 1
 x[66] <= 1
 x[67] <= 1
 x[68] <= 1
 x[69] <= 1
 x[70] <= 1
 x[71] <= 1
 x[72] <= 1
 x[73] <= 1
 x[74] <= 1
 x[75] <= 1
 x[76] <= 1
 x[77] <= 1
 x[78] <= 1
 x[79] <= 1
 x[80] <= 1
 x[81] <= 1
 x[82] <= 1
 x[83] <= 1
 x[84] <= 1
 x[85] <= 1
 x[86] <= 1
 x[87] <= 1
 x[88] <= 1
 x[89] <= 1
 x[90] <= 1
 x[91] <= 1
 x[92] <= 1
 x[93] <= 1
 x[94] <= 1
 x[95] <= 1
 x[96] <= 1
 x[97] <= 1
 x[98] <= 1
 x[99] <= 1
 x[100] <= 1
 x[101] <= 1
 x[102] <= 1
 x[103] <= 1
 x[104] <= 1
 x[105] <= 1
 x[106] <= 1
 x[107] <= 1
 x[108] <= 1
 x[109] <= 1
 x[110] <= 1
 x[111] <= 1
 x[112] <= 1
 x[113] <= 1
 x[114] <= 1
 x[115] <= 1
 x[116] <= 1
 x[117] <= 1
 x[118] <= 1
 x[119] <= 1
 x[120] <= 1
 x[121] <= 1
 x[122] <= 1
 x[123] <= 1
 x[124] <= 1
 x[125] <= 1
 x[126] <= 1
 x[127] <= 1
 x[128] <= 1
 x[129] <= 1
 x[130] <= 1
 x[131] <= 1
 x[132] <= 1
 x[133] <= 1
 x[134] <= 1
 x[135] <= 1
 x[136] <= 1
 x[137] <= 1
 x[138] <= 1
 x[139] <= 1
 x[140] <= 1
 x[141] <= 1
 x[142] <= 1
 x[143] <= 1
 x[144] <= 1
 x[145] <= 1
 x[146] <= 1
 x[147] <= 1
 x[148] <= 1
 x[149] <= 1
 x[150] <= 1
 x[151] <= 1
 x[152] <= 1
 x[153] <= 1
 x[154] <= 1
 x[155] <= 1
 x[156] <= 1
 x[157] <= 1
 x[158] <= 1
 x[159] <= 1
 x[160] <= 1
 x[161] <= 1
 x[162] <= 1
 x[163] <= 1
 x[164] <= 1
 x[165] <= 1
 x[166] <= 1
 x[167] <= 1
 x[168] <= 1
 x[169] <= 1
 x[170] <= 1
 x[171] <= 1
 x[172] <= 1
 x[173] <= 1
 x[174] <= 1
 x[175] <= 1
 x[176] <= 1
 x[177] <= 1
 x[178] <= 1
 x[179] <= 1
 x[180] <= 1
 x[181] <= 1
 x[182] <= 1
 x[183] <= 1
 x[184] <= 1
 x[185] <= 1
 x[186] <= 1
 x[187] <= 1
 x[188] <= 1
 x[189] <= 1
 x[190] <= 1
 x[191] <= 1
 x[192] <= 1
 x[193] <= 1
 x[194] <= 1
 x[195] <= 1
 x[196] <= 1
 x[197] <= 1
 x[198] <= 1
 x[199] <= 1
 x[200] <= 1
 x[201] <= 1
 x[202] <= 1
 x[203] <= 1
 x[204] <= 1
 x[205] <= 1
 x[206] <= 1
 x[207] <= 1
 x[208] <= 1
 x[209] <= 1
End
